; Label array extracted from bank-full.csv
; Encoding: yes -> 1, no -> 0

(declare-const O (Array Int Int))
(define-fun m () Int 300)

(assert (= (select O 0) 0))
(assert (= (select O 1) 0))
(assert (= (select O 2) 0))
(assert (= (select O 3) 0))
(assert (= (select O 4) 0))
(assert (= (select O 5) 0))
(assert (= (select O 6) 0))
(assert (= (select O 7) 0))
(assert (= (select O 8) 0))
(assert (= (select O 9) 0))
(assert (= (select O 10) 0))
(assert (= (select O 11) 0))
(assert (= (select O 12) 0))
(assert (= (select O 13) 0))
(assert (= (select O 14) 0))
(assert (= (select O 15) 0))
(assert (= (select O 16) 0))
(assert (= (select O 17) 0))
(assert (= (select O 18) 0))
(assert (= (select O 19) 0))
(assert (= (select O 20) 0))
(assert (= (select O 21) 0))
(assert (= (select O 22) 0))
(assert (= (select O 23) 0))
(assert (= (select O 24) 0))
(assert (= (select O 25) 0))
(assert (= (select O 26) 0))
(assert (= (select O 27) 0))
(assert (= (select O 28) 0))
(assert (= (select O 29) 0))
(assert (= (select O 30) 0))
(assert (= (select O 31) 0))
(assert (= (select O 32) 0))
(assert (= (select O 33) 0))
(assert (= (select O 34) 0))
(assert (= (select O 35) 0))
(assert (= (select O 36) 0))
(assert (= (select O 37) 0))
(assert (= (select O 38) 0))
(assert (= (select O 39) 0))
(assert (= (select O 40) 0))
(assert (= (select O 41) 0))
(assert (= (select O 42) 0))
(assert (= (select O 43) 0))
(assert (= (select O 44) 0))
(assert (= (select O 45) 0))
(assert (= (select O 46) 0))
(assert (= (select O 47) 0))
(assert (= (select O 48) 0))
(assert (= (select O 49) 0))
(assert (= (select O 50) 0))
(assert (= (select O 51) 0))
(assert (= (select O 52) 0))
(assert (= (select O 53) 0))
(assert (= (select O 54) 0))
(assert (= (select O 55) 0))
(assert (= (select O 56) 0))
(assert (= (select O 57) 0))
(assert (= (select O 58) 0))
(assert (= (select O 59) 0))
(assert (= (select O 60) 0))
(assert (= (select O 61) 0))
(assert (= (select O 62) 0))
(assert (= (select O 63) 0))
(assert (= (select O 64) 0))
(assert (= (select O 65) 0))
(assert (= (select O 66) 0))
(assert (= (select O 67) 0))
(assert (= (select O 68) 0))
(assert (= (select O 69) 0))
(assert (= (select O 70) 0))
(assert (= (select O 71) 0))
(assert (= (select O 72) 0))
(assert (= (select O 73) 0))
(assert (= (select O 74) 0))
(assert (= (select O 75) 0))
(assert (= (select O 76) 0))
(assert (= (select O 77) 0))
(assert (= (select O 78) 0))
(assert (= (select O 79) 0))
(assert (= (select O 80) 0))
(assert (= (select O 81) 0))
(assert (= (select O 82) 0))
(assert (= (select O 83) 1))
(assert (= (select O 84) 0))
(assert (= (select O 85) 0))
(assert (= (select O 86) 1))
(assert (= (select O 87) 1))
(assert (= (select O 88) 0))
(assert (= (select O 89) 0))
(assert (= (select O 90) 0))
(assert (= (select O 91) 0))
(assert (= (select O 92) 0))
(assert (= (select O 93) 0))
(assert (= (select O 94) 0))
(assert (= (select O 95) 0))
(assert (= (select O 96) 0))
(assert (= (select O 97) 0))
(assert (= (select O 98) 0))
(assert (= (select O 99) 0))
(assert (= (select O 100) 0))
(assert (= (select O 101) 0))
(assert (= (select O 102) 0))
(assert (= (select O 103) 0))
(assert (= (select O 104) 0))
(assert (= (select O 105) 0))
(assert (= (select O 106) 0))
(assert (= (select O 107) 0))
(assert (= (select O 108) 0))
(assert (= (select O 109) 0))
(assert (= (select O 110) 0))
(assert (= (select O 111) 0))
(assert (= (select O 112) 0))
(assert (= (select O 113) 0))
(assert (= (select O 114) 0))
(assert (= (select O 115) 0))
(assert (= (select O 116) 0))
(assert (= (select O 117) 0))
(assert (= (select O 118) 0))
(assert (= (select O 119) 0))
(assert (= (select O 120) 0))
(assert (= (select O 121) 0))
(assert (= (select O 122) 0))
(assert (= (select O 123) 0))
(assert (= (select O 124) 0))
(assert (= (select O 125) 0))
(assert (= (select O 126) 0))
(assert (= (select O 127) 0))
(assert (= (select O 128) 0))
(assert (= (select O 129) 1))
(assert (= (select O 130) 0))
(assert (= (select O 131) 0))
(assert (= (select O 132) 0))
(assert (= (select O 133) 0))
(assert (= (select O 134) 0))
(assert (= (select O 135) 0))
(assert (= (select O 136) 0))
(assert (= (select O 137) 0))
(assert (= (select O 138) 0))
(assert (= (select O 139) 0))
(assert (= (select O 140) 0))
(assert (= (select O 141) 0))
(assert (= (select O 142) 0))
(assert (= (select O 143) 0))
(assert (= (select O 144) 0))
(assert (= (select O 145) 0))
(assert (= (select O 146) 0))
(assert (= (select O 147) 0))
(assert (= (select O 148) 0))
(assert (= (select O 149) 0))
(assert (= (select O 150) 0))
(assert (= (select O 151) 0))
(assert (= (select O 152) 0))
(assert (= (select O 153) 0))
(assert (= (select O 154) 0))
(assert (= (select O 155) 0))
(assert (= (select O 156) 0))
(assert (= (select O 157) 0))
(assert (= (select O 158) 0))
(assert (= (select O 159) 0))
(assert (= (select O 160) 0))
(assert (= (select O 161) 0))
(assert (= (select O 162) 0))
(assert (= (select O 163) 0))
(assert (= (select O 164) 0))
(assert (= (select O 165) 0))
(assert (= (select O 166) 0))
(assert (= (select O 167) 0))
(assert (= (select O 168) 1))
(assert (= (select O 169) 0))
(assert (= (select O 170) 0))
(assert (= (select O 171) 0))
(assert (= (select O 172) 0))
(assert (= (select O 173) 0))
(assert (= (select O 174) 0))
(assert (= (select O 175) 0))
(assert (= (select O 176) 0))
(assert (= (select O 177) 0))
(assert (= (select O 178) 0))
(assert (= (select O 179) 0))
(assert (= (select O 180) 0))
(assert (= (select O 181) 0))
(assert (= (select O 182) 0))
(assert (= (select O 183) 0))
(assert (= (select O 184) 0))
(assert (= (select O 185) 0))
(assert (= (select O 186) 0))
(assert (= (select O 187) 0))
(assert (= (select O 188) 0))
(assert (= (select O 189) 0))
(assert (= (select O 190) 0))
(assert (= (select O 191) 0))
(assert (= (select O 192) 0))
(assert (= (select O 193) 0))
(assert (= (select O 194) 0))
(assert (= (select O 195) 0))
(assert (= (select O 196) 0))
(assert (= (select O 197) 0))
(assert (= (select O 198) 0))
(assert (= (select O 199) 0))
(assert (= (select O 200) 0))
(assert (= (select O 201) 0))
(assert (= (select O 202) 0))
(assert (= (select O 203) 0))
(assert (= (select O 204) 0))
(assert (= (select O 205) 0))
(assert (= (select O 206) 0))
(assert (= (select O 207) 0))
(assert (= (select O 208) 0))
(assert (= (select O 209) 0))
(assert (= (select O 210) 0))
(assert (= (select O 211) 0))
(assert (= (select O 212) 0))
(assert (= (select O 213) 0))
(assert (= (select O 214) 0))
(assert (= (select O 215) 0))
(assert (= (select O 216) 0))
(assert (= (select O 217) 0))
(assert (= (select O 218) 0))
(assert (= (select O 219) 0))
(assert (= (select O 220) 0))
(assert (= (select O 221) 0))
(assert (= (select O 222) 0))
(assert (= (select O 223) 0))
(assert (= (select O 224) 0))
(assert (= (select O 225) 0))
(assert (= (select O 226) 0))
(assert (= (select O 227) 0))
(assert (= (select O 228) 0))
(assert (= (select O 229) 0))
(assert (= (select O 230) 0))
(assert (= (select O 231) 0))
(assert (= (select O 232) 0))
(assert (= (select O 233) 0))
(assert (= (select O 234) 0))
(assert (= (select O 235) 0))
(assert (= (select O 236) 0))
(assert (= (select O 237) 0))
(assert (= (select O 238) 0))
(assert (= (select O 239) 0))
(assert (= (select O 240) 0))
(assert (= (select O 241) 0))
(assert (= (select O 242) 0))
(assert (= (select O 243) 0))
(assert (= (select O 244) 0))
(assert (= (select O 245) 0))
(assert (= (select O 246) 0))
(assert (= (select O 247) 0))
(assert (= (select O 248) 0))
(assert (= (select O 249) 0))
(assert (= (select O 250) 0))
(assert (= (select O 251) 0))
(assert (= (select O 252) 0))
(assert (= (select O 253) 0))
(assert (= (select O 254) 0))
(assert (= (select O 255) 0))
(assert (= (select O 256) 0))
(assert (= (select O 257) 0))
(assert (= (select O 258) 0))
(assert (= (select O 259) 0))
(assert (= (select O 260) 0))
(assert (= (select O 261) 0))
(assert (= (select O 262) 0))
(assert (= (select O 263) 0))
(assert (= (select O 264) 0))
(assert (= (select O 265) 0))
(assert (= (select O 266) 0))
(assert (= (select O 267) 0))
(assert (= (select O 268) 0))
(assert (= (select O 269) 0))
(assert (= (select O 270) 1))
(assert (= (select O 271) 0))
(assert (= (select O 272) 0))
(assert (= (select O 273) 0))
(assert (= (select O 274) 0))
(assert (= (select O 275) 0))
(assert (= (select O 276) 0))
(assert (= (select O 277) 0))
(assert (= (select O 278) 0))
(assert (= (select O 279) 0))
(assert (= (select O 280) 0))
(assert (= (select O 281) 0))
(assert (= (select O 282) 0))
(assert (= (select O 283) 0))
(assert (= (select O 284) 0))
(assert (= (select O 285) 0))
(assert (= (select O 286) 0))
(assert (= (select O 287) 0))
(assert (= (select O 288) 0))
(assert (= (select O 289) 0))
(assert (= (select O 290) 0))
(assert (= (select O 291) 0))
(assert (= (select O 292) 0))
(assert (= (select O 293) 0))
(assert (= (select O 294) 0))
(assert (= (select O 295) 0))
(assert (= (select O 296) 0))
(assert (= (select O 297) 0))
(assert (= (select O 298) 0))
(assert (= (select O 299) 0))

; label set: {0, 1}
(declare-const L (Array Int Int))
(define-fun l () Int 2)

(assert (= (select L 0) 0))
(assert (= (select L 1) 1))

(define-fun-rec sum-if-value ((A (Array Int Int)) (item Int) (size Int)) Int
  (ite (< size 0)
       0
       (ite (= (select A size) item)
            (+ 1 (sum-if-value A item (- size 1)))
            (sum-if-value A item (- size 1))
       )
  )
)

; imbalance tolerance parameter
(define-fun B () Int 2)

(assert
  (not
    (exists ((i Int))
      (and
        (>= i 0)
        (< i l)
        (< (sum-if-value O (select L i) (- m 1))
           (/ m (* l B)))
      )
    )
  )
)

(check-sat)